32      4       
16      17      17      15      
0       0       0       0       0       1       2       
9       16      17      17      15      1       3       
4       13      11      15      15      2       8       4       
5       16      11      17      6       1       5       
6       16      16      12      15      2       7       6       
4       16      12      17      10      2       12      9       
5       16      15      17      14      1       10      
10      16      4       17      7       1       9       
4       16      17      17      13      2       13      11      
3       16      17      17      15      2       13      11      
4       16      17      17      15      3       17      15      14      
7       9       17      17      15      3       17      15      14      
5       16      17      17      11      1       14      
2       16      17      17      15      3       24      18      16      
5       16      16      17      15      2       24      16      
3       11      17      17      15      3       22      20      19      
10      16      17      17      15      3       23      20      19      
5       16      3       10      15      3       23      22      20      
10      15      17      17      15      1       21      
5       16      17      17      15      1       25      
8       16      17      7       15      1       25      
5       13      17      17      9       1       25      
5       16      15      8       11      1       25      
3       12      17      17      15      1       25      
1       16      17      15      14      2       27      26      
1       16      17      15      10      2       29      28      
4       9       16      17      15      1       28      
2       16      17      17      15      2       31      30      
9       16      17      7       15      1       30      
6       5       17      15      15      1       32      
8       9       17      15      15      1       32      
0       0       0       0       0       0       
